NAME : mEgtspf.pid16824.gtsp.182536221.tour
COMMENT : Length = 182536221
COMMENT : Found by LKH [Keld Helsgaun] Thu Apr  3 10:57:52 2025
TYPE : TOUR
DIMENSION : 91
TOUR_SECTION
1
17
18
19
16
9
69
70
71
68
5
38
39
36
37
15
81
82
83
80
41
42
43
40
12
61
62
63
60
14
56
57
58
59
47
44
45
46
13
3
84
85
86
87
26
27
24
25
4
2
89
90
91
88
33
34
35
32
65
66
67
64
8
31
28
29
30
7
20
21
22
23
6
54
55
52
53
78
79
76
77
10
50
51
48
49
11
75
72
73
74
-1
EOF
